246 5
10 10 10 10 10 

0 0 0 0 0 0 3 2 14 26 
0 0 0 0 0 0 2 3 178 
2 0 0 0 1 0 2 6 4 
7 0 0 0 9 0 1 5 
6 0 0 0 6 0 2 10 7 
6 0 0 0 7 0 2 10 8 
1 0 0 0 10 0 1 8 
1 0 0 0 7 0 2 12 9 
5 0 0 0 10 0 1 11 
6 0 0 0 7 0 1 11 
9 0 0 0 10 0 1 13 
5 0 0 0 8 0 1 13 
0 0 0 0 0 0 1 38 
0 0 0 0 0 0 2 15 16 
6 0 0 7 0 0 2 19 17 
6 0 0 7 0 0 2 19 18 
4 0 0 5 0 0 1 18 
1 0 0 10 0 0 2 20 113 
5 0 0 6 0 0 1 20 
3 0 0 8 0 0 1 21 
10 0 0 9 0 0 1 22 
6 0 0 5 0 0 2 24 23 
6 0 0 10 0 0 1 25 
6 0 0 8 0 0 1 25 
0 0 0 0 0 0 1 38 
0 0 0 0 0 0 4 27 34 35 36 
5 0 1 0 0 0 1 28 
8 0 5 0 0 0 1 29 
10 0 10 0 0 0 1 30 
5 0 8 0 0 0 1 31 
4 0 7 0 0 0 1 32 
7 0 8 0 0 0 1 33 
4 0 10 0 0 0 1 37 
4 0 7 0 0 0 2 37 210 
10 0 10 0 0 0 1 37 
6 0 9 0 0 0 1 37 
0 0 0 0 0 0 1 38 
0 0 0 0 0 0 5 39 51 63 75 87 
0 0 0 0 0 0 3 40 41 42 
1 0 0 5 0 0 1 43 
7 0 0 6 0 0 1 43 
10 0 0 4 0 0 2 43 79 
9 0 0 6 0 0 1 44 
6 0 0 9 0 0 1 45 
3 0 0 10 0 0 1 46 
4 0 0 7 0 0 2 49 47 
5 0 0 10 0 0 1 48 
4 0 0 10 0 0 1 50 
4 0 0 8 0 0 1 50 
0 0 0 0 0 0 1 99 
0 0 0 0 0 0 3 52 56 61 
8 0 0 0 3 0 1 53 
5 0 0 0 6 0 1 54 
2 0 0 0 10 0 2 58 55 
5 0 0 0 6 0 2 57 158 
6 0 0 0 9 0 1 57 
10 0 0 0 8 0 1 59 
8 0 0 0 3 0 1 59 
4 0 0 0 10 0 1 60 
4 0 0 0 10 0 1 62 
1 0 0 0 10 0 1 62 
0 0 0 0 0 0 1 99 
0 0 0 0 0 0 4 64 67 71 73 
2 0 0 0 0 10 1 65 
10 0 0 0 0 5 1 66 
10 0 0 0 0 5 1 68 
8 0 0 0 0 7 2 68 206 
3 0 0 0 0 10 1 69 
8 0 0 0 0 10 1 70 
7 0 0 0 0 6 1 72 
10 0 0 0 0 6 1 72 
5 0 0 0 0 10 1 74 
7 0 0 0 0 6 1 74 
0 0 0 0 0 0 1 99 
0 0 0 0 0 0 2 76 85 
10 0 0 0 2 0 2 84 77 
9 0 0 0 10 0 1 78 
6 0 0 0 6 0 2 83 79 
7 0 0 0 4 0 2 80 165 
10 0 0 0 9 0 1 81 
7 0 0 0 10 0 1 82 
7 0 0 0 6 0 1 86 
10 0 0 0 8 0 1 86 
9 0 0 0 10 0 1 86 
3 0 0 0 10 0 1 86 
0 0 0 0 0 0 1 99 
0 0 0 0 0 0 3 88 94 97 
3 0 0 3 0 0 2 96 89 
5 0 0 4 0 0 1 90 
9 0 0 9 0 0 1 91 
2 0 0 6 0 0 1 92 
5 0 0 9 0 0 2 93 141 
8 0 0 9 0 0 1 95 
2 0 0 10 0 0 1 95 
8 0 0 8 0 0 1 98 
7 0 0 9 0 0 1 98 
4 0 0 8 0 0 1 98 
0 0 0 0 0 0 1 99 
0 0 0 0 0 0 5 100 112 124 136 148 
0 0 0 0 0 0 1 101 
7 0 0 4 0 0 3 106 104 102 
10 0 0 7 0 0 1 103 
10 0 0 5 0 0 1 105 
7 0 0 7 0 0 2 105 179 
7 0 0 9 0 0 1 107 
5 0 0 10 0 0 1 107 
7 0 0 10 0 0 1 108 
9 0 0 6 0 0 2 110 109 
2 0 0 10 0 0 1 111 
5 0 0 7 0 0 1 111 
0 0 0 0 0 0 1 160 
0 0 0 0 0 0 1 113 
5 5 0 0 0 0 2 122 114 
9 9 0 0 0 0 3 121 120 115 
4 5 0 0 0 0 2 116 127 
9 5 0 0 0 0 1 117 
9 5 0 0 0 0 1 118 
4 10 0 0 0 0 1 119 
8 8 0 0 0 0 1 123 
1 8 0 0 0 0 1 123 
10 10 0 0 0 0 1 123 
5 10 0 0 0 0 1 123 
0 0 0 0 0 0 1 160 
0 0 0 0 0 0 2 125 127 
10 0 0 0 0 3 1 126 
10 0 0 0 0 7 1 128 
4 0 0 0 0 5 1 128 
9 0 0 0 0 7 1 129 
4 0 0 0 0 7 2 131 130 
8 0 0 0 0 7 2 133 132 
6 0 0 0 0 10 1 132 
5 0 0 0 0 9 1 134 
4 0 0 0 0 10 2 134 223 
7 0 0 0 0 10 1 135 
0 0 0 0 0 0 1 160 
0 0 0 0 0 0 2 137 139 
8 0 0 4 0 0 2 143 138 
6 0 0 2 0 0 1 140 
5 0 0 10 0 0 2 143 142 
1 0 0 9 0 0 1 141 
5 0 0 7 0 0 1 142 
5 0 0 10 0 0 2 146 144 
10 0 0 10 0 0 3 146 144 165 
6 0 0 10 0 0 1 145 
8 0 0 10 0 0 1 147 
3 0 0 3 0 0 1 147 
0 0 0 0 0 0 1 160 
0 0 0 0 0 0 2 149 226 
10 0 0 0 3 0 1 150 
1 0 0 0 8 0 1 151 
3 0 0 0 9 0 3 154 153 152 
1 0 0 0 5 0 2 156 155 
6 0 0 0 7 0 2 156 155 
10 0 0 0 10 0 1 155 
6 0 0 0 10 0 1 157 
6 0 0 0 6 0 1 157 
6 0 0 0 9 0 1 158 
5 0 0 0 8 0 1 159 
0 0 0 0 0 0 1 160 
0 0 0 0 0 0 5 161 173 185 197 209 
0 0 0 0 0 0 3 162 165 166 
10 0 2 0 0 0 1 163 
3 0 10 0 0 0 1 164 
3 0 8 0 0 0 2 167 244 
2 0 6 0 0 0 1 167 
5 0 7 0 0 0 1 167 
10 0 9 0 0 0 2 171 168 
7 0 7 0 0 0 1 169 
1 0 6 0 0 0 1 170 
10 0 10 0 0 0 1 172 
5 0 10 0 0 0 1 172 
0 0 0 0 0 0 1 221 
0 0 0 0 0 0 3 174 175 206 
2 0 2 0 0 0 2 179 177 
8 0 10 0 0 0 1 176 
3 0 6 0 0 0 1 177 
2 0 10 0 0 0 1 178 
8 0 8 0 0 0 2 183 180 
7 0 8 0 0 0 2 183 180 
9 0 7 0 0 0 1 181 
4 0 10 0 0 0 1 182 
5 0 6 0 0 0 1 184 
5 0 8 0 0 0 1 184 
0 0 0 0 0 0 1 221 
0 0 0 0 0 0 1 186 
4 0 0 0 0 2 2 188 187 
1 0 0 0 0 5 3 195 193 190 
7 0 0 0 0 9 2 195 189 
1 0 0 0 0 10 1 190 
2 0 0 0 0 10 1 191 
9 0 0 0 0 10 1 192 
10 0 0 0 0 8 1 194 
2 0 0 0 0 7 1 194 
9 0 0 0 0 7 2 196 202 
8 0 0 0 0 7 1 196 
0 0 0 0 0 0 1 221 
0 0 0 0 0 0 3 198 200 231 
8 0 0 0 0 2 2 205 199 
7 0 0 0 0 9 2 202 201 
1 0 0 0 0 8 2 205 201 
4 0 0 0 0 6 1 203 
2 0 0 0 0 7 1 203 
7 0 0 0 0 10 1 204 
2 0 0 0 0 10 1 206 
8 0 0 0 0 6 1 206 
8 0 0 0 0 10 1 207 
6 0 0 0 0 7 1 208 
0 0 0 0 0 0 1 221 
0 0 0 0 0 0 1 210 
4 0 0 2 0 0 1 211 
4 0 0 8 0 0 1 212 
2 0 0 6 0 0 3 219 216 213 
5 0 0 10 0 0 2 218 214 
9 0 0 8 0 0 1 215 
1 0 0 6 0 0 1 217 
10 0 0 8 0 0 2 218 237 
10 0 0 10 0 0 1 220 
8 0 0 7 0 0 1 220 
2 0 0 10 0 0 1 220 
0 0 0 0 0 0 1 221 
0 0 0 0 0 0 2 222 234 
0 0 0 0 0 0 1 223 
6 0 0 0 5 0 3 225 224 239 
5 0 0 0 7 0 2 228 227 
1 0 0 0 6 0 1 226 
10 0 0 0 10 0 2 229 227 
9 0 0 0 8 0 1 230 
1 0 0 0 10 0 1 229 
10 0 0 0 8 0 1 231 
9 0 0 0 5 0 1 231 
7 0 0 0 6 0 1 232 
7 0 0 0 10 0 1 233 
0 0 0 0 0 0 1 246 
0 0 0 0 0 0 1 235 
8 7 0 0 0 0 2 238 236 
5 4 0 0 0 0 1 237 
4 9 0 0 0 0 2 240 239 
10 10 0 0 0 0 2 242 240 
5 6 0 0 0 0 2 242 241 
10 9 0 0 0 0 1 241 
8 4 0 0 0 0 1 243 
7 9 0 0 0 0 1 243 
9 8 0 0 0 0 1 244 
7 9 0 0 0 0 1 245 
0 0 0 0 0 0 1 246 
0 0 0 0 0 0 0 
